<instance format="XCSP3" type="CSP">
  <constraints>
    <element id="c1">
      <list startIndex="1"> x1 x2 x3 x4 </list>
      <index> i </index>
      <value> v </value>
    </element>
  </constraints>
</instance>
